Gurobi Optimizer version 9.1.2 build v9.1.2rc0 (linux64)
Thread count: 36 physical cores, 72 logical processors, using up to 32 threads
Optimize a model with 12 rows, 57 columns and 590 nonzeros
Model fingerprint: 0xf32eec78
Model has 47 quadratic constraints
Coefficient statistics:
  Matrix range     [2e-05, 3e+00]
  QMatrix range    [1e+00, 1e+00]
  QLMatrix range   [1e+00, 1e+00]
  Objective range  [8e-03, 7e-01]
  Bounds range     [1e+00, 1e+00]
  RHS range        [1e+00, 1e+00]
Presolve removed 9 rows and 0 columns

Continuous model is non-convex -- solving as a MIP.

Presolve removed 9 rows and 0 columns
Presolve time: 0.00s
Presolved: 189 rows, 57 columns, 443 nonzeros
Presolved model has 47 bilinear constraint(s)
Variable types: 57 continuous, 0 integer (0 binary)

Root relaxation: objective -1.743721e+00, 44 iterations, 0.00 seconds

    Nodes    |    Current Node    |     Objective Bounds      |     Work
 Expl Unexpl |  Obj  Depth IntInf | Incumbent    BestBd   Gap | It/Node Time

     0     0   -1.74372    0   38          -   -1.74372      -     -    0s
H    0     0                       0.6147548   -1.74372   384%     -    0s
     0     0   -1.64739    0    1    0.61475   -1.64739   368%     -    0s
H    0     0                      -1.6450460   -1.64739  0.14%     -    0s
     0     0     cutoff    0        -1.64505   -1.64505  0.00%     -    0s

Cutting planes:
  RLT: 25
  BQP: 3

Explored 1 nodes (76 simplex iterations) in 0.01 seconds
Thread count was 32 (of 72 available processors)

Solution count 2: -1.64505 0.614755 
No other solutions better than -1.64505

Optimal solution found (tolerance 1.00e-04)
Best objective -1.645045978473e+00, best bound -1.645045978473e+00, gap 0.0000%

User-callback calls 78, time in user-callback 0.00 sec
Gurobi Optimizer version 9.1.2 build v9.1.2rc0 (linux64)
Thread count: 36 physical cores, 72 logical processors, using up to 32 threads
Optimize a model with 60 rows, 300 columns and 15500 nonzeros
Model fingerprint: 0x25ddc1b7
Model has 250 quadratic constraints
Coefficient statistics:
  Matrix range     [1e-06, 4e+00]
  QMatrix range    [1e+00, 1e+00]
  QLMatrix range   [1e+00, 1e+00]
  Objective range  [3e-04, 1e+00]
  Bounds range     [1e+00, 1e+00]
  RHS range        [1e+00, 1e+00]
Presolve removed 11 rows and 0 columns

Continuous model is non-convex -- solving as a MIP.

Presolve removed 11 rows and 0 columns
Presolve time: 0.01s
Presolved: 1049 rows, 300 columns, 14161 nonzeros
Presolved model has 250 bilinear constraint(s)
Variable types: 300 continuous, 0 integer (0 binary)

Root relaxation: objective -2.413820e+01, 356 iterations, 0.02 seconds

    Nodes    |    Current Node    |     Objective Bounds      |     Work
 Expl Unexpl |  Obj  Depth IntInf | Incumbent    BestBd   Gap | It/Node Time

     0     0  -24.13820    0  199          -  -24.13820      -     -    0s
     0     0  -21.76992    0  229          -  -21.76992      -     -    0s
     0     0  -21.18001    0  155          -  -21.18001      -     -    0s
     0     0  -21.16613    0  147          -  -21.16613      -     -    0s
     0     0  -21.10267    0  147          -  -21.10267      -     -    0s
     0     0  -21.10177    0  147          -  -21.10177      -     -    0s
     0     0  -21.08963    0  161          -  -21.08963      -     -    0s
     0     0  -21.08926    0  136          -  -21.08926      -     -    0s
     0     0  -21.08926    0  136          -  -21.08926      -     -    0s
H    0     0                     -17.3631388  -21.08926  21.5%     -    0s
     0     2  -21.08926    0  136  -17.36314  -21.08926  21.5%     -    0s
* 1614  1155              95     -17.3784783  -19.91751  14.6%  69.4    2s
* 1774  1333              54     -17.9503744  -19.91751  11.0%  66.9    2s
* 1894  1319              54     -17.9503750  -19.76697  10.1%  65.6    2s
* 2402  1505              56     -18.2957046  -19.63580  7.32%  64.3    2s
* 3617  1785             102     -18.3005011  -19.52955  6.72%  63.1    3s
* 3618  1785             102     -18.3005017  -19.52955  6.72%  63.1    3s
* 3620  1785             102     -18.3005050  -19.52955  6.72%  63.1    3s
* 3623  1785             104     -18.3005065  -19.52955  6.72%  63.0    3s
* 3624  1785             104     -18.3005065  -19.52955  6.72%  63.0    3s
* 4388  1776              64     -18.3011742  -19.33606  5.65%  61.6    3s
* 5795  1814              79     -18.3579582  -18.93746  3.16%  61.0    4s
  6324  1368  -18.62038   25  188  -18.35796  -18.93746  3.16%  62.3    5s
* 9919   780              87     -18.3654835  -18.93746  3.11%  65.9    6s
* 9921   780              88     -18.3654857  -18.93746  3.11%  65.9    6s
*10915   943              72     -18.3663040  -18.93746  3.11%  65.9    6s
*10920   943              75     -18.3663298  -18.93746  3.11%  65.9    6s
*10925   943              75     -18.3663300  -18.93746  3.11%  65.9    6s
*11132   953              68     -18.3663790  -18.93746  3.11%  65.8    7s
*13144  1154             103     -18.4943011  -18.93746  2.40%  66.0    7s
*13487  1185             117     -18.5035883  -18.93746  2.34%  65.9    7s
*13488  1185             117     -18.5035887  -18.93746  2.34%  65.9    7s
*15944  1417              84     -18.5037427  -18.92639  2.28%  64.8    9s
*16125  1417              83     -18.5083453  -18.90325  2.13%  64.6    9s
*16812  1604              74     -18.5459965  -18.86350  1.71%  63.9    9s
*17049  1930              72     -18.5461797  -18.85274  1.65%  63.5    9s
*17054  1930              72     -18.5461960  -18.85274  1.65%  63.5    9s
*17408  1930              99     -18.5911607  -18.82393  1.25%  62.9    9s
 17787  1997  -18.67538   30   80  -18.59116  -18.82294  1.25%  62.4   10s
*18525  1997              67     -18.5925620  -18.81378  1.19%  61.4   10s
*19023  2178              84     -18.5937171  -18.81378  1.18%  60.5   10s
*19029  2178              89     -18.5937253  -18.81378  1.18%  60.5   10s
*19030  2178              89     -18.5937256  -18.81378  1.18%  60.5   10s
*19031  2178              88     -18.5937260  -18.81378  1.18%  60.5   10s
*19035  2178              89     -18.5937263  -18.81378  1.18%  60.5   10s
*19038  2178              91     -18.5937263  -18.81378  1.18%  60.5   10s
*19243  2178              76     -18.5996020  -18.81378  1.15%  60.2   10s
*19247  2178              78     -18.5996270  -18.81378  1.15%  60.2   10s
*19303  2178              72     -18.6077500  -18.81378  1.11%  60.1   10s
*19683  2298              67     -18.6080868  -18.76565  0.85%  59.5   10s
*19790  2298              75     -18.6342918  -18.76565  0.70%  59.2   10s
*19904  2298              87     -18.6535390  -18.76565  0.60%  58.9   10s
*20602  2053              62     -18.6539933  -18.76345  0.59%  57.9   10s
*20603  2053              62     -18.6539978  -18.76345  0.59%  57.9   10s
*21764  2635              55     -18.6543113  -18.75205  0.52%  56.2   10s
*22110  2635              78     -18.6742247  -18.75205  0.42%  55.5   10s
*22875  2274              61     -18.6742251  -18.73777  0.34%  54.1   11s
*22879  2274              62     -18.6742579  -18.73777  0.34%  54.1   11s
*22881  2274              63     -18.6742584  -18.73777  0.34%  54.1   11s
*23175  2274              67     -18.6744615  -18.71927  0.24%  53.7   11s
*23181  2274              68     -18.6744645  -18.71927  0.24%  53.6   11s
*23182  2274              68     -18.6744646  -18.71927  0.24%  53.6   11s
*23249  2274              77     -18.6746765  -18.71927  0.24%  53.5   11s
*23831  2274              73     -18.6748523  -18.71927  0.24%  52.7   11s
*23833  2274              74     -18.6748532  -18.71927  0.24%  52.7   11s
*23834  2274              74     -18.6748537  -18.71927  0.24%  52.7   11s
*23926  2274              84     -18.6784001  -18.71927  0.22%  52.6   11s
*24614  2179              62     -18.6786538  -18.71509  0.20%  51.6   11s
*24619  2179              62     -18.6786538  -18.71509  0.20%  51.6   11s
*24953  2179              76     -18.6820966  -18.71509  0.18%  51.1   11s
*24955  2179              77     -18.6820969  -18.71509  0.18%  51.1   11s
*24957  2179              78     -18.6820970  -18.71509  0.18%  51.1   11s
*25761  1947              81     -18.6845433  -18.69962  0.08%  50.0   11s
*27504  1459              74     -18.6845668  -18.69080  0.03%  47.5   11s
*27739  1459              71     -18.6846663  -18.69033  0.03%  47.2   11s
*27741  1459              69     -18.6846971  -18.69033  0.03%  47.2   11s
*28602  1633              70     -18.6849526  -18.68849  0.02%  46.0   12s
*28605  1633              70     -18.6849542  -18.68849  0.02%  46.0   12s

Explored 30288 nodes (1325986 simplex iterations) in 12.21 seconds
Thread count was 32 (of 72 available processors)

Solution count 10: -18.685 -18.6847 -18.6847 ... -18.6749

Optimal solution found (tolerance 1.00e-04)
Best objective -1.868495417597e+01, best bound -1.868665306042e+01, gap 0.0091%

User-callback calls 62017, time in user-callback 0.02 sec



objective value: -18.684954175974454
objective bound: -18.6866530604225
x_opt: [0.0, 1.0, 1.0, 1.0, 0.0, 1.0, 1.0, 1.0, 0.2060702531412181, 0.0, 0.0, 3.093863402232541e-10, 0.0, 0.9999235417199035, 1.0, 1.0, 0.2746931304876867, 1.0000004250544277, 0.0, 0.0, 0.0, 1.0, 1.0, 1.0, 0.0, 0.0, 1.0, 0.0, 7.436412113263208e-10, 0.7204942255343222, 0.0, 1.0, 0.31051819544505466, 0.9436870031339363, 1.0, 1.0, 1.0, 0.6705935662269603, 0.9999995749455723, 1.0, 0.1599898901142481, 0.04315716033972348, 0.16293753154866011, 0.1850996940550576, 0.0, 0.0930771474862965, 0.0, 0.9999995749455723, 0.0, 0.9676127918500484]
GUROBI solution time: 12.212568044662476

